Academic license - for non-commercial use only - expires 2021-04-23
Using license file /Users/jackbenson/gurobi.lic
Changed value of parameter Threads to 1
   Prev: 0  Min: 0  Max: 1024  Default: 0
Changed value of parameter TimeLimit to 1000.0
   Prev: inf  Min: 0.0  Max: inf  Default: inf
Gurobi Optimizer version 9.1.1 build v9.1.1rc0 (mac64)
Thread count: 2 physical cores, 4 logical processors, using up to 1 threads
Optimize a model with 86854 rows, 65202 columns and 465248 nonzeros
Model fingerprint: 0xfd824dc3
Variable types: 14 continuous, 65188 integer (65188 binary)
Coefficient statistics:
  Matrix range     [7e-04, 1e+00]
  Objective range  [1e+00, 1e+00]
  Bounds range     [1e+00, 1e+00]
  RHS range        [5e-01, 1e+00]
Presolve removed 18604 rows and 18604 columns
Presolve time: 2.17s
Presolved: 68250 rows, 46598 columns, 381543 nonzeros
Variable types: 14 continuous, 46584 integer (46578 binary)
Found heuristic solution: objective -19995.00000

Root simplex log...

Iteration    Objective       Primal Inf.    Dual Inf.      Time
   17659   -1.8489215e+04   6.003843e+03   0.000000e+00      5s
   24479   -1.8611215e+04   6.049046e+04   0.000000e+00     10s
   27459   -1.8611216e+04   1.079845e+04   0.000000e+00     15s
   28161   -1.8611214e+04   0.000000e+00   0.000000e+00     16s
   28161   -1.8611214e+04   0.000000e+00   0.000000e+00     16s

Root relaxation: objective -1.861121e+04, 28161 iterations, 13.39 seconds
Total elapsed time = 24.14s
Total elapsed time = 32.95s

    Nodes    |    Current Node    |     Objective Bounds      |     Work
 Expl Unexpl |  Obj  Depth IntInf | Incumbent    BestBd   Gap | It/Node Time

     0     0 -18611.214    0 6209 -19995.000 -18611.214  6.92%     -   51s
     0     0 -18611.214    0 13483 -19995.000 -18611.214  6.92%     -  122s
     0     0 -18611.214    0 13399 -19995.000 -18611.214  6.92%     -  123s
     0     0 -18611.214    0 9311 -19995.000 -18611.214  6.92%     -  167s
     0     0 -18611.214    0 13811 -19995.000 -18611.214  6.92%     -  262s
     0     0 -18611.214    0 13797 -19995.000 -18611.214  6.92%     -  275s
     0     0 -18611.214    0 13438 -19995.000 -18611.214  6.92%     -  345s
H    0     0                    -19941.00000 -18611.214  6.67%     -  356s
     0     0 -18611.214    0 13149 -19941.000 -18611.214  6.67%     -  361s
     0     0 -18611.214    0 12424 -19941.000 -18611.214  6.67%     -  396s
     0     0 -18611.214    0 12424 -19941.000 -18611.214  6.67%     -  408s
     0     2 -18611.214    0 12424 -19941.000 -18611.214  6.67%     -  441s
     1     3 -18653.214    1 10602 -19941.000 -18611.214  6.67% 42558  461s
     2     4 -18611.214    1 14087 -19941.000 -18611.214  6.67% 24788  472s
     3     5 -18611.214    2 14206 -19941.000 -18611.214  6.67% 17424  478s
     4     6 -18889.500    2 8610 -19941.000 -18611.214  6.67% 16734  487s
     5     7 -18611.214    3 14246 -19941.000 -18611.214  6.67% 14272  493s
     6     8 -19401.000    3 1495 -19941.000 -18611.214  6.67% 14050  501s
H    7     7                    -19571.00000 -18611.214  4.90% 12043  501s
H    8     8                    -19570.00000 -18611.214  4.90% 10552  522s
    14    14 -19532.286    8 7021 -19570.000 -18611.214  4.90%  6800  525s
    20    18 -19435.200   12 1712 -19570.000 -18611.214  4.90%  5120  530s
    26    18 -19473.500   15 1660 -19570.000 -18611.214  4.90%  4053  537s
    36    22 -19557.000   22  132 -19570.000 -18611.214  4.90%  2995  540s
    41    21 -18741.000    4 7541 -19570.000 -18611.214  4.90%  2925  546s
    43    23 -18797.000    5 4919 -19570.000 -18611.214  4.90%  2975  550s
    45    25 -18983.333    6 9021 -19570.000 -18611.214  4.90%  3047  556s
    48    28 -19078.500    8 8403 -19570.000 -18611.214  4.90%  3072  561s
    51    31 -18802.600   10 4929 -19570.000 -18611.214  4.90%  3084  565s
    54    34 -19077.000   11 8385 -19570.000 -18611.214  4.90%  3249  571s
    56    36 -19075.000   12 8356 -19570.000 -18611.214  4.90%  3320  576s
    58    38 -19075.500   13 8224 -19570.000 -18611.214  4.90%  3422  581s
    59    39 -18967.735   14 7059 -19570.000 -18611.214  4.90%  3568  599s
    60    40 -19076.250   15 6003 -19570.000 -18611.214  4.90%  3570  601s
    63    41 -19518.500   17 4509 -19570.000 -18611.214  4.90%  3501  607s
    68    40 -18611.214    4 13070 -19570.000 -18611.214  4.90%  3353  615s
    69    41 -18611.214    5 14999 -19570.000 -18611.214  4.90%  3699  658s
    70    42 -19242.500    5 8420 -19570.000 -18611.214  4.90%  3877  667s
    71    43 -18611.214    6 14104 -19570.000 -18611.214  4.90%  3881  673s
    72    44 -18611.994    6 13805 -19570.000 -18611.214  4.90%  3998  687s
    73    45 -18612.298    7 13277 -19570.000 -18611.214  4.90%  4110  693s
    74    46 -18775.750    7 6199 -19570.000 -18611.214  4.90%  4112  696s
    82    52 -18869.125   14 5088 -19570.000 -18611.214  4.90%  3787  700s
    86    52 -18939.667   16 5315 -19570.000 -18611.214  4.90%  3739  705s
    88    52 -19036.500   17 5037 -19570.000 -18611.214  4.90%  3767  710s
    92    50     cutoff   19      -19570.000 -18611.214  4.90%  3723  715s
    94    52 -19223.778   20 6734 -19570.000 -18611.214  4.90%  3733  722s
    96    54 -19247.500   22 6279 -19570.000 -18611.214  4.90%  3670  725s
   105    55 -18618.888    7 7554 -19570.000 -18611.214  4.90%  3480  735s
   114    64 -19468.205   13 8960 -19570.000 -18611.214  4.90%  3341  748s
   115    65 -19468.205   14 8939 -19570.000 -18611.214  4.90%  3406  754s
   116    66 -19468.205   15 8938 -19570.000 -18611.214  4.90%  3467  759s
   117    67 -18837.499   16 8013 -19570.000 -18611.214  4.90%  3569  768s
   119    69 -18678.714   17 6586 -19570.000 -18611.214  4.90%  3569  771s
   120    70 -19477.705   17 8454 -19570.000 -18611.214  4.90%  3625  775s
   122    72 -18781.464   18 4725 -19570.000 -18611.214  4.90%  3646  780s
   125    75 -19512.600   20 10046 -19570.000 -18611.214  4.90%  3701  789s
   126    76 -19497.400   19 9044 -19570.000 -18611.214  4.90%  3737  794s
   127    77 -18801.167   19 6136 -19570.000 -18611.214  4.90%  3733  795s
   131    79 -18969.000   22 4720 -19570.000 -18611.214  4.90%  3754  805s
   136    80 -19276.000   25 3706 -19570.000 -18611.214  4.90%  3690  810s
   147    81     cutoff   32      -19570.000 -18611.214  4.90%  3477  815s
   150    82 -18611.214    8 13559 -19570.000 -18611.214  4.90%  3436  820s
   152    84 -18611.237   10 17668 -19570.000 -18611.214  4.90%  3499  849s
   153    85 -18624.308   10 6137 -19570.000 -18611.214  4.90%  3526  853s
   155    87 -18625.808   12 6111 -19570.000 -18611.214  4.90%  3486  855s
   160    92 -18840.386   17 8202 -19570.000 -18611.214  4.90%  3517  865s
   161    91     cutoff   15      -19570.000 -18611.214  4.90%  3544  873s
   162    90     cutoff   16      -19570.000 -18611.214  4.90%  3566  878s
   163    89     cutoff   17      -19570.000 -18611.214  4.90%  3581  883s
   164    90 -18977.000   18 7282 -19570.000 -18611.214  4.90%  3578  885s
   172    90     cutoff   23      -19570.000 -18611.214  4.90%  3483  890s
   176    92     cutoff   26      -19570.000 -18611.214  4.90%  3456  895s
   180    90 -18754.750    8 10132 -19570.000 -18611.214  4.90%  3453  901s
   185    95 -18887.714   13 4724 -19570.000 -18611.214  4.90%  3370  905s
   194    98 -19232.500   19 5960 -19570.000 -18611.214  4.90%  3317  920s
   203    99 -19414.333   24 4876 -19570.000 -18611.214  4.90%  3207  925s
   211    99 -18882.500    9 7369 -19570.000 -18611.237  4.90%  3140  932s
   214   100     cutoff   12      -19570.000 -18611.237  4.90%  3153  936s
   222   108 -19276.111   19 7870 -19570.000 -18611.237  4.90%  3072  940s
   224   110 -19283.739   21 6690 -19570.000 -18611.237  4.90%  3056  945s
   231   115 -19436.000   27 3486 -19570.000 -18611.237  4.90%  3012  950s
   243   113 -18619.214   11 6213 -19570.000 -18611.237  4.90%  2918  957s
   251   121 -18713.908   19 6740 -19570.000 -18611.237  4.90%  2854  966s
   261   129 -18876.452   28 6193 -19570.000 -18611.237  4.90%  2796  971s
   263   131 -18993.567   30 7317 -19570.000 -18611.237  4.90%  2829  975s
   267   133 -19075.540   33 7384 -19570.000 -18611.237  4.90%  2825  981s
   272   134 -19096.400   36 6277 -19570.000 -18611.237  4.90%  2808  985s
   277   135 -19290.127   39 5972 -19570.000 -18611.237  4.90%  2792  990s
   280   134 -18611.237   11 17670 -19570.000 -18611.237  4.90%  2771  995s

Cutting planes:
  Gomory: 3
  Zero half: 163

Explored 282 nodes (1149478 simplex iterations) in 1000.05 seconds
Thread count was 1 (of 4 available processors)

Solution count 4: -19570 -19571 -19941 -19995 

Time limit reached
Best objective -1.957000000000e+04, best bound -1.861200000000e+04, gap 4.8952%



#########node  1
priors_count.1
#########node  2
priors_count.8
#########node  3
two_year_recid.0
#########node  4
leaf 2
#########node  5
leaf 2
#########node  6
leaf 2
#########node  7
leaf 1


Total Solving Time 1003.6539838314056
obj value -19570.0
obj value -19570.0
train acc 0.6891325378910029
test acc 0.6668826960466624
calibration acc 0.6701570680628273
Data
      priors_count  two_year_recid  gender_factor  age_factor  race_factor  crime_factor  target  Predictions
4929             1               0              1           2            4             2       1            1
2399             0               0              1           1            4             2       1            1
5460             0               1              2           1            2             1       2            2
2097             1               1              1           1            2             1       2            2
2750             0               1              1           3            2             1       2            2
...            ...             ...            ...         ...          ...           ...     ...          ...
1744             8               1              1           1            4             1       2            2
1047             1               1              1           3            1             1       2            2
2269             6               0              1           1            2             1       2            2
1096             0               0              1           2            3             2       1            1
1872             3               1              2           1            2             1       1            2

[3101 rows x 8 columns]
1 & 3 with feature and feature value: gender_factor=2 has train data CSP: 0
1 & 3 with feature and feature value: gender_factor=2 has train data CSP: 0.0
1 & 3 with feature and feature value: gender_factor=2 has train data CSP: 0.0
1 & 3 with feature and feature value: gender_factor=2 has train data CSP: 0.0
1 & 3 with feature and feature value: gender_factor=2 has train data CSP: 0.0
1 & 3 with feature and feature value: gender_factor=2 has train data CSP: 0.0
